c FILE /home/rafael/Documents/HappySet/MIHS/inputs/happygen/output/graph_d_regular_k3_p0.5_v100_20241127_084020.txt
c SOURCE This is a d-regular graph formed for the happy graph colouring problem.
c DESCRIPTION It was generated using the problem generator of Rhyd Lewis
c
c GRAPH STATS
c Seed                             = -1827367851
c Number of Nodes                  = 100
c Number of colours k              = 3
c Number of pre-assignments        = 50
c Degree of all vertices           = 6
c Density                          = 0.0606061
c 
c The degrees of nodes 1 to 100, respectively, are as follows 
c [6, 6, 6, 6, 6, 6, 6, 6, 6, 6, 6, 6, 6, 6, 6, 6, 6, 6, 6, 6, 6, 6, 6, 6, 6, 6, 
c  6, 6, 6, 6, 6, 6, 6, 6, 6, 6, 6, 6, 6, 6, 6, 6, 6, 6, 6, 6, 6, 6, 6, 6, 6, 
c  6, 6, 6, 6, 6, 6, 6, 6, 6, 6, 6, 6, 6, 6, 6, 6, 6, 6, 6, 6, 6, 6, 6, 6, 6, 
c  6, 6, 6, 6, 6, 6, 6, 6, 6, 6, 6, 6, 6, 6, 6, 6, 6, 6, 6, 6, 6, 6, 6, 6] 
c  
p edge 100 300 3
e 1 15
e 1 33
e 1 39
e 1 66
e 1 85
e 1 94
e 2 5
e 2 31
e 2 76
e 2 78
e 2 81
e 2 96
e 3 17
e 3 24
e 3 50
e 3 58
e 3 67
e 3 87
e 4 16
e 4 26
e 4 70
e 4 75
e 4 76
e 4 87
e 5 7
e 5 21
e 5 30
e 5 61
e 5 91
e 6 19
e 6 25
e 6 32
e 6 53
e 6 80
e 6 84
e 7 81
e 7 82
e 7 84
e 7 93
e 7 97
e 8 29
e 8 43
e 8 44
e 8 54
e 8 60
e 8 68
e 9 26
e 9 49
e 9 54
e 9 83
e 9 86
e 9 93
e 10 25
e 10 34
e 10 50
e 10 61
e 10 77
e 10 99
e 11 19
e 11 26
e 11 49
e 11 50
e 11 59
e 11 87
e 12 15
e 12 22
e 12 29
e 12 55
e 12 80
e 12 93
e 13 42
e 13 48
e 13 53
e 13 88
e 13 92
e 13 100
e 14 15
e 14 42
e 14 45
e 14 60
e 14 64
e 14 71
e 15 41
e 15 63
e 15 89
e 16 45
e 16 56
e 16 65
e 16 72
e 16 78
e 17 24
e 17 46
e 17 51
e 17 74
e 17 95
e 18 29
e 18 35
e 18 36
e 18 71
e 18 74
e 18 80
e 19 24
e 19 37
e 19 94
e 19 98
e 20 35
e 20 74
e 20 78
e 20 83
e 20 85
e 20 91
e 21 22
e 21 46
e 21 60
e 21 79
e 21 89
e 22 27
e 22 41
e 22 43
e 22 61
e 23 44
e 23 48
e 23 51
e 23 52
e 23 82
e 23 85
e 24 25
e 24 88
e 24 98
e 25 28
e 25 43
e 25 52
e 26 35
e 26 37
e 26 56
e 27 42
e 27 50
e 27 68
e 27 71
e 27 81
e 28 38
e 28 54
e 28 58
e 28 59
e 28 96
e 29 47
e 29 75
e 29 96
e 30 54
e 30 59
e 30 64
e 30 69
e 30 94
e 31 37
e 31 44
e 31 47
e 31 70
e 31 98
e 32 43
e 32 57
e 32 74
e 32 93
e 32 100
e 33 41
e 33 64
e 33 87
e 33 89
e 33 91
e 34 42
e 34 48
e 34 51
e 34 55
e 34 92
e 35 59
e 35 60
e 35 84
e 36 39
e 36 45
e 36 58
e 36 70
e 36 97
e 37 68
e 37 79
e 37 83
e 38 39
e 38 73
e 38 81
e 38 92
e 38 93
e 39 47
e 39 78
e 39 80
e 40 53
e 40 58
e 40 64
e 40 74
e 40 94
e 40 98
e 41 51
e 41 75
e 41 100
e 42 44
e 42 94
e 43 61
e 43 75
e 44 46
e 44 79
e 45 46
e 45 72
e 45 85
e 46 49
e 46 95
e 47 56
e 47 66
e 47 88
e 48 61
e 48 68
e 48 89
e 49 54
e 49 82
e 49 99
e 50 62
e 50 81
e 51 89
e 51 94
e 52 67
e 52 79
e 52 81
e 52 97
e 53 58
e 53 75
e 53 76
e 54 69
e 55 76
e 55 92
e 55 93
e 55 100
e 56 78
e 56 84
e 56 96
e 57 77
e 57 88
e 57 96
e 57 97
e 57 99
e 58 66
e 59 75
e 59 86
e 60 70
e 60 72
e 61 62
e 62 71
e 62 77
e 62 85
e 62 88
e 63 71
e 63 73
e 63 77
e 63 90
e 63 95
e 64 69
e 64 79
e 65 68
e 65 72
e 65 80
e 65 95
e 65 99
e 66 82
e 66 85
e 66 87
e 67 70
e 67 83
e 67 88
e 67 90
e 68 80
e 69 73
e 69 86
e 69 90
e 70 77
e 71 73
e 72 83
e 72 91
e 73 79
e 73 86
e 74 83
e 76 84
e 76 92
e 77 95
e 78 92
e 82 86
e 82 100
e 84 87
e 86 99
e 89 90
e 90 95
e 90 98
e 91 96
e 91 99
e 97 98
e 97 100
n 4 2
n 5 1
n 8 3
n 9 3
n 12 3
n 13 3
n 15 3
n 16 2
n 17 1
n 19 1
n 20 2
n 22 3
n 24 1
n 25 1
n 27 3
n 29 3
n 30 1
n 31 1
n 34 3
n 35 2
n 36 2
n 37 1
n 38 3
n 40 1
n 41 3
n 45 2
n 48 3
n 49 3
n 52 1
n 56 2
n 57 1
n 62 1
n 64 1
n 67 1
n 72 2
n 76 2
n 77 1
n 78 2
n 79 1
n 80 3
n 82 3
n 84 2
n 86 3
n 87 2
n 90 1
n 93 3
n 94 1
n 95 1
n 98 1
n 100 3
